Generated by cif2cell 2.1.0. Ba C O3 :  de Villiers, J. P. R., American Mineralogist 56, 758-767 (1971).
   5.312600
  1.000000000000000   0.000000000000000   0.000000000000000
  0.000000000000000   1.674472009938636   0.000000000000000
  0.000000000000000   0.000000000000000   1.210028987689644
   C  Ba   O
   4   4  12
Direct
  0.250000000000000   0.757000000000000   0.919000000000000 
  0.250000000000000   0.743000000000000   0.419000000000000 
  0.750000000000000   0.243000000000000   0.081000000000000 
  0.750000000000000   0.257000000000000   0.581000000000000 
  0.250000000000000   0.416310000000000   0.754900000000000 
  0.250000000000000   0.083690000000000   0.254900000000000 
  0.750000000000000   0.583690000000000   0.245100000000000 
  0.750000000000000   0.916310000000000   0.745100000000000 
  0.250000000000000   0.901100000000000   0.912200000000000 
  0.250000000000000   0.598900000000000   0.412200000000000 
  0.750000000000000   0.098900000000000   0.087800000000000 
  0.750000000000000   0.401100000000000   0.587800000000000 
  0.459500000000000   0.683900000000000   0.921000000000000 
  0.040500000000000   0.816100000000000   0.421000000000000 
  0.540500000000000   0.316100000000000   0.079000000000000 
  0.040500000000000   0.683900000000000   0.921000000000000 
  0.459500000000000   0.816100000000000   0.421000000000000 
  0.959500000000000   0.183900000000000   0.579000000000000 
  0.959500000000000   0.316100000000000   0.079000000000000 
  0.540500000000000   0.183900000000000   0.579000000000000 
